6

0   20   2   3   2   9
20   0   15   19   7   15
2   15   0   17   14   20
3   19   17   0   1   17
2   7   14   1   0   16
9   15   20   17   16   0

0   7   23   12   33   53
7   0   20   13   26   60
23   20   0   33   36   50
12   13   33   0   25   65
33   26   36   25   0   86
53   60   50   65   86   0